Selected objective sense:  MINIMIZE
Selected objective  name:  OBJ
Selected RHS        name:  RHS1
Selected bound      name:  BND1
CPXPARAM_Preprocessing_Presolve                  0
CPXPARAM_LPMethod                                4
CPXPARAM_Threads                                 1
CPXPARAM_SolutionType                            2
CPXPARAM_TimeLimit                               3600
Tried aggregator 0 times.
DUAL formed by presolve
Reduced presolve eliminated 270 rows and 318 columns.
Reduced LP has 14090 rows, 3874 columns, and 318343 nonzeros.
Presolve time = 0.07 sec. (71.49 ticks)
Parallel mode: none, using 1 thread for barrier

***NOTE: Found 24 dense columns.

Number of nonzeros in lower triangle of A*A' = 22372
Using Approximate Minimum Degree ordering
Total time for automatic ordering = 0.00 sec. (1.73 ticks)
Summary statistics for Cholesky factor:
  Rows in Factor            = 14114
  Integer space required    = 101283
  Total non-zeros in factor = 357850
  Total FP ops to factor    = 9216432
 Itn      Primal Obj        Dual Obj  Prim Inf Upper Inf  Dual Inf Inf Ratio
   0  -9.1382588e+05   7.6378555e+07  2.05e+04  0.00e+00  1.41e+07  1.00e+00
   1  -1.2594666e+06   6.2883515e+07  7.13e+03  9.41e-13  1.17e+07  1.24e-03
   2  -7.6989582e+05   1.7920339e+07  2.77e+02  9.41e-13  3.42e+06  4.12e-03
   3  -2.5081543e+05   1.5243711e+06  6.76e+01  4.20e-12  3.08e+05  4.59e-02
   4  -1.4089560e+05   1.3954876e+05  2.73e+01  1.32e-12  4.02e+04  3.48e-01
   5  -2.4947850e+04   1.1078335e+04  4.27e+00  5.69e-13  4.17e+03  2.38e+00
   6   2.0497896e+03   6.2313117e+03  5.41e-01  4.92e-12  2.24e+02  1.87e+01
   7   4.2916412e+03   5.9933964e+03  2.26e-01  8.16e-13  6.50e+01  2.49e+01
   8   5.4309184e+03   5.9226997e+03  6.17e-02  8.14e-13  3.08e+01  4.54e+01
   9   5.6838840e+03   5.8856791e+03  2.26e-02  5.29e-12  1.85e+01  7.07e+01
  10   5.7521903e+03   5.8589715e+03  1.07e-02  4.27e-12  1.16e+01  1.12e+02
  11   5.7855720e+03   5.8429237e+03  4.42e-03  1.02e-12  7.88e+00  1.69e+02
  12   5.7969197e+03   5.8385424e+03  2.45e-03  2.44e-12  6.79e+00  1.99e+02
  13   5.8042909e+03   5.8316818e+03  1.10e-03  8.14e-13  5.14e+00  2.75e+02
  14   5.8089742e+03   5.8276186e+03  3.95e-04  2.03e-12  4.10e+00  3.59e+02
  15   5.8113348e+03   5.8253391e+03  1.05e-04  8.13e-13  3.50e+00  4.31e+02
  16   5.8122750e+03   5.8223103e+03  5.56e-05  2.85e-12  2.61e+00  5.85e+02
  17   5.8123967e+03   5.8210164e+03  2.67e-05  1.02e-12  2.27e+00  6.94e+02
  18   5.8128916e+03   5.8189978e+03  5.56e-06  1.42e-12  1.70e+00  9.75e+02
  19   5.8131196e+03   5.8175870e+03  5.15e-06  3.05e-12  1.26e+00  1.34e+03
  20   5.8132211e+03   5.8169940e+03  5.70e-06  1.22e-12  1.09e+00  1.60e+03
  21   5.8133704e+03   5.8162585e+03  3.24e-06  4.68e-12  8.57e-01  2.07e+03
  22   5.8134400e+03   5.8155451e+03  5.09e-06  2.64e-12  6.37e-01  2.92e+03
  23   5.8134777e+03   5.8148533e+03  1.35e-06  3.05e-12  4.22e-01  4.87e+03
  24   5.8135426e+03   5.8140870e+03  7.25e-07  2.64e-12  1.60e-01  1.49e+04
  25   5.8136009e+03   5.8140046e+03  3.15e-07  2.03e-12  1.30e-01  1.90e+04
  26   5.8136432e+03   5.8139057e+03  5.38e-08  1.83e-12  9.39e-02  2.72e+04
  27   5.8136500e+03   5.8138154e+03  2.63e-08  4.27e-12  6.01e-02  4.40e+04
  28   5.8136501e+03   5.8137988e+03  4.79e-08  2.24e-12  5.41e-02  4.98e+04
  29   5.8136534e+03   5.8137043e+03  2.73e-08  8.13e-13  1.82e-02  1.81e+05
  30   5.8136541e+03   5.8136828e+03  1.05e-06  4.27e-12  9.28e-03  3.99e+05
  31   5.8136610e+03   5.8136707e+03  1.83e-05  1.83e-12  3.78e-03  9.94e+05
  32   5.8136613e+03   5.8136673e+03  2.73e-04  3.66e-12  2.31e-03  1.75e+06
  33   5.8136615e+03   5.8136655e+03  4.21e-04  2.04e-12  1.48e-03  2.83e+06
  34   5.8136617e+03   5.8136639e+03  5.94e-04  2.24e-12  7.44e-04  6.11e+06
  35   5.8136620e+03   5.8136632e+03  8.22e-04  4.90e-12  4.04e-04  1.14e+07
  36   5.8136621e+03   5.8136630e+03  9.81e-04  2.86e-12  2.63e-04  1.75e+07
  37   5.8136622e+03   5.8136626e+03  1.12e-03  4.69e-12  9.46e-05  4.74e+07
  38   5.8136624e+03   5.8136626e+03  1.33e-03  2.65e-12  5.72e-05  7.14e+07
  39   5.8136624e+03   5.8136625e+03  1.41e-03  2.45e-12  2.66e-05  1.53e+08
Barrier time = 0.85 sec. (1007.46 ticks)

Total time on 1 threads = 0.85 sec. (1007.46 ticks)
Solve time: 0.848335276
Barrier iterations: 39
